Version identifier: 22.1.0.0 | 2022-03-09 | 1a383f8ce
CPXPARAM_Read_DataCheck                          1
1 of 1 MIP starts provided solutions.
MIP start 'm1' defined initial solution with objective 50.0000.
Tried aggregator 4 times.
MIP Presolve eliminated 49740 rows and 5686 columns.
MIP Presolve modified 705 coefficients.
Aggregator did 45379 substitutions.
Reduced MIP has 5966 rows, 46435 columns, and 98918 nonzeros.
Reduced MIP has 46405 binaries, 30 generals, 0 SOSs, and 0 indicators.
Presolve time = 0.52 sec. (546.50 ticks)
Tried aggregator 1 time.
Detecting symmetries...
Reduced MIP has 5966 rows, 46435 columns, and 98918 nonzeros.
Reduced MIP has 46405 binaries, 30 generals, 0 SOSs, and 0 indicators.
Presolve time = 0.09 sec. (73.74 ticks)
Probing fixed 48 vars, tightened 0 bounds.
Probing time = 0.15 sec. (28.71 ticks)
Clique table members: 94189.
MIP emphasis: balance optimality and feasibility.
MIP search method: dynamic search.
Parallel mode: deterministic, using up to 8 threads.
Root relaxation solution time = 0.52 sec. (361.59 ticks)

        Nodes                                         Cuts/
   Node  Left     Objective  IInf  Best Integer    Best Bound    ItCnt     Gap

*     0+    0                           50.0000        0.0000           100.00%
      0     0       30.4220  4573       50.0000       30.4220       23   39.16%
      0     0        cutoff             50.0000                     42    0.00%
Elapsed time = 4.39 sec. (2390.33 ticks, tree = 0.01 MB, solutions = 1)

Zero-half cuts applied:  29
Gomory fractional cuts applied:  20

Root node processing (before b&c):
  Real time             =    4.40 sec. (2393.61 ticks)
Parallel b&c, 8 threads:
  Real time             =    0.00 sec. (0.00 ticks)
  Sync time (average)   =    0.00 sec.
  Wait time (average)   =    0.00 sec.
                          ------------
Total (root+branch&cut) =    4.40 sec. (2393.61 ticks)
